50	
970	
1428	
114	582
38	194
133	679
95	485
612	396
171	873
918	594
408	264
714	462
510	330
114	582
76	388
57	291
204	132
1020	660
816	528
190	970
510	330
114	582
714	462
152	776
38	194
918	594
190	970
612	396
510	330
306	198
95	485
816	528
714	462
114	582
76	388
918	594
133	679
102	66
306	198
612	396
1020	660
102	66
1020	660
918	594
510	330
918	594
114	582
76	388
57	291
918	594
95	485
612	396
204	132